c Output_time 26.03.2020 18:08:27_+0100 1585242507201701094
c ** Program information **
c program_name                          "QBRG_debug"
c version                               "0.3.20"
c date                                  "25.3.2020"
c gid_id                                "673970833836058123f633335630c185360d632e"
c author                                "Oliver Kullmann"
c url                                   "https://github.com/OKullmann/oklibrary/blob/master/Satisfiability/Transformers/Generators/Random/QBRG.cpp"
c ** Machine information **
c machine_name                          "chyna-Lenovo-G50-70"
c bogomips                              3791.08
c ** Compilation information **
c compiler_version                      "g++ 7.5.0"
c compilation_date                      "Mar_26_2020 11:16:30"
c compilation_options                   "--std=c++17 -pedantic -fmax-errors=5 -Wall -Wextra -g -D_GLIBCXX_DEBUG"
c NDEBUG                                0
c OPTIMIZE                              0
c ** Parameters **
c command-line                          "./QBRG_debug" "a40 40" "235*1,1|2-2,1" "" "1,t" ""
c output                                "QuBlRaGe_80_235_1585242507201555758.qdimacs"
c options                               "filtered,renamed"
c num_quantifier_blocks                 2
c  quantifier_blocks                    1:a1-40 2:e41-80
c num_clause-blocks                     1
c  clause-blocks                        235 * {1-40,1,1/2} | {41-80,1,1/2}
c num_e-seeds                           23+2=25
c  e-seeds                              1 0 1 0 3 80 2 40 0 40 1 235 2 1 1 1 1 2 2 2 1 1 2 1 1585242507201555338
p cnf 79 235
a 1 2 3 4 5 6 7 8 9 10 11 12 13 14 15 16 17 18 19 20 21 22 23 24 25 26 27 28 29 30 31 32 33 34 35 36 37 38 39 0
e 40 41 42 43 44 45 46 47 48 49 50 51 52 53 54 55 56 57 58 59 60 61 62 63 64 65 66 67 68 69 70 71 72 73 74 75 76 77 78 79 0
-5 -40 0
-9 40 0
13 40 0
-34 40 0
2 -41 0
11 41 0
-15 41 0
-16 41 0
-31 41 0
35 41 0
-39 41 0
2 -42 0
-13 -42 0
-27 -42 0
-13 42 0
33 42 0
34 42 0
-4 -43 0
-2 43 0
-6 43 0
-35 43 0
38 43 0
-3 -44 0
9 -44 0
-17 -44 0
-29 -44 0
-34 -44 0
37 -44 0
-1 44 0
3 44 0
-4 44 0
11 44 0
-4 -45 0
4 -45 0
-12 -45 0
-22 -45 0
-33 -45 0
9 45 0
-17 -46 0
13 -47 0
24 -47 0
-17 47 0
-17 -48 0
29 -48 0
-37 -48 0
38 -48 0
-2 48 0
24 48 0
29 48 0
-18 -49 0
24 -49 0
26 -49 0
-33 -49 0
1 49 0
11 49 0
13 49 0
19 49 0
12 50 0
13 50 0
14 50 0
32 50 0
1 -51 0
3 -51 0
-6 -51 0
-29 -51 0
-36 -51 0
-34 51 0
-28 52 0
-30 52 0
-31 52 0
35 52 0
-38 52 0
-4 -53 0
-7 -53 0
17 -53 0
-18 53 0
28 53 0
-8 -54 0
29 -54 0
-12 54 0
-15 54 0
28 -55 0
-12 55 0
-23 55 0
-3 -56 0
3 -56 0
18 -56 0
-20 56 0
-36 56 0
-4 -57 0
-6 -57 0
-32 -57 0
-36 -57 0
5 57 0
11 57 0
-33 57 0
8 -58 0
-28 -58 0
30 -58 0
32 -58 0
33 -58 0
-8 58 0
-15 58 0
9 59 0
-12 59 0
24 59 0
29 59 0
36 59 0
20 -60 0
-3 60 0
-23 60 0
-24 60 0
-27 60 0
31 -61 0
3 61 0
9 61 0
-33 61 0
-36 61 0
12 -62 0
-18 -62 0
-31 -62 0
32 -62 0
-11 62 0
30 62 0
34 62 0
8 -63 0
-13 -63 0
7 63 0
-23 63 0
24 63 0
1 -64 0
-4 -64 0
10 -64 0
-14 -64 0
25 -64 0
2 64 0
-30 64 0
-1 -65 0
8 -65 0
19 -65 0
-4 65 0
-17 65 0
21 65 0
26 65 0
30 65 0
-4 -66 0
7 66 0
9 66 0
12 66 0
15 66 0
18 66 0
-22 66 0
14 -67 0
-23 67 0
34 67 0
-38 67 0
-39 67 0
-18 -68 0
-30 -68 0
6 68 0
32 68 0
-8 -69 0
-11 -69 0
-16 -69 0
-17 -69 0
-23 -69 0
31 -69 0
-16 69 0
-1 -70 0
-13 -70 0
-17 -70 0
17 -70 0
-38 -70 0
12 70 0
16 70 0
-25 70 0
-34 70 0
34 70 0
13 -71 0
22 -71 0
-26 -71 0
-14 71 0
26 71 0
34 71 0
-12 -72 0
-13 -72 0
20 -72 0
-27 -72 0
-32 -72 0
9 72 0
10 72 0
-22 72 0
-31 72 0
36 72 0
-31 -73 0
32 -73 0
35 -73 0
19 73 0
-20 73 0
22 -74 0
-28 -74 0
-31 -74 0
35 -74 0
-36 -74 0
-8 74 0
20 74 0
-18 -75 0
21 -75 0
22 -75 0
32 -75 0
-3 75 0
-5 75 0
21 -76 0
14 76 0
18 76 0
19 76 0
-33 76 0
29 -77 0
-10 77 0
-28 77 0
-31 77 0
-32 77 0
32 77 0
14 -78 0
22 -78 0
-10 78 0
20 78 0
28 78 0
-7 -79 0
-14 -79 0
-15 -79 0
-27 -79 0
-28 -79 0
-9 79 0
16 79 0
